
Gurobi 10.0.1 (mac64[arm]) logging started Fri Apr  5 13:19:06 2024

Set parameter LogFile to value "/Users/deniserings/Documents/zib/s-bahn-data/scripts/DeniseMA/processed/BWKS_medium_september/RINS/BWKS_medium_september_202404051212_random3_0.9.log"
Gurobi Optimizer version 10.0.1 build v10.0.1rc0 (mac64[arm])

CPU model: Apple M2
Thread count: 8 physical cores, 8 logical processors, using up to 8 threads

Optimize a model with 10537 rows, 4887 columns and 50426 nonzeros
Model fingerprint: 0x32e0fcd5
Variable types: 1358 continuous, 3529 integer (1331 binary)
Coefficient statistics:
  Matrix range     [1e+00, 4e+02]
  Objective range  [1e+00, 4e+02]
  Bounds range     [1e+00, 2e+02]
  RHS range        [1e+00, 9e+03]

User MIP start did not produce a new incumbent solution
User MIP start violates constraint objective_cutoff by 94.840000000

Presolve removed 4374 rows and 1601 columns
Presolve time: 0.14s
Presolved: 6163 rows, 3286 columns, 29362 nonzeros
Variable types: 871 continuous, 2415 integer (2415 binary)

Root relaxation: objective 8.158000e+03, 1621 iterations, 0.07 seconds (0.04 work units)
Another try with MIP start

    Nodes    |    Current Node    |     Objective Bounds      |     Work
 Expl Unexpl |  Obj  Depth IntInf | Incumbent    BestBd   Gap | It/Node Time

     0     0 8158.00000    0  183          - 8158.00000      -     -    0s
     0     0 8161.12034    0  287          - 8161.12034      -     -    1s
     0     0 8161.12034    0  248          - 8161.12034      -     -    1s
     0     0 8198.63021    0  331          - 8198.63021      -     -    1s
     0     0 8198.63021    0  311          - 8198.63021      -     -    1s
     0     0 8221.32001    0  303          - 8221.32001      -     -    1s
     0     0 8227.63317    0  307          - 8227.63317      -     -    1s
     0     0 8227.63317    0  300          - 8227.63317      -     -    1s
     0     0 8233.87140    0  297          - 8233.87140      -     -    2s
     0     0 8237.62771    0  279          - 8237.62771      -     -    2s
     0     0 8237.62771    0  290          - 8237.62771      -     -    2s
     0     0 8238.12089    0  287          - 8238.12089      -     -    2s
     0     0 8240.51455    0  286          - 8240.51455      -     -    2s
     0     0 8240.51455    0  287          - 8240.51455      -     -    2s
     0     0 8240.58772    0  290          - 8240.58772      -     -    2s
     0     0 8240.58772    0  293          - 8240.58772      -     -    2s
     0     0 8240.58772    0  289          - 8240.58772      -     -    2s
     0     0 8240.58772    0  298          - 8240.58772      -     -    2s
     0     0 8240.58772    0  187          - 8240.58772      -     -    3s
     0     0 8240.58772    0  229          - 8240.58772      -     -    3s
     0     0 8240.58772    0  142          - 8240.58772      -     -    3s
     0     0 8241.85919    0  179          - 8241.85919      -     -    3s
     0     0 8241.85919    0  175          - 8241.85919      -     -    3s
     0     0 8242.66180    0  141          - 8242.66180      -     -    4s
     0     0 8242.66180    0  160          - 8242.66180      -     -    4s
     0     0 8243.11942    0  162          - 8243.11942      -     -    4s
     0     0 8243.11942    0  185          - 8243.11942      -     -    4s
     0     0 8243.44538    0  183          - 8243.44538      -     -    4s
     0     0 8243.44538    0  173          - 8243.44538      -     -    4s
     0     0 8243.44538    0  181          - 8243.44538      -     -    4s
     0     0 8243.44538    0  192          - 8243.44538      -     -    4s
     0     0 8243.44538    0  176          - 8243.44538      -     -    4s
     0     0 8243.44538    0  127          - 8243.44538      -     -    4s
     0     2 8243.44538    0  127          - 8243.44538      -     -    5s
  1507  1309 8450.00000   15  170          - 8450.00000      -   4.4  277s
  3300  2463 8999.00000  128   86          - 8450.00000      -  19.3  280s
H 5783  2717                    8815.0000000 8450.00000  4.14%  21.7  281s
H 7183  3511                    8810.0000000 8450.00000  4.09%  22.1  283s
H 7309  3696                    8806.0000000 8450.00000  4.04%  22.4  283s
H 7437  3683                    8796.0000000 8450.00000  3.93%  22.5  283s
H 8215  4421                    8795.0000000 8450.00000  3.92%  23.1  284s
H 9135  5029                    8794.0000000 8450.00000  3.91%  23.0  284s
H 9249  4946                    8788.0000000 8450.00000  3.85%  23.1  284s
  9404  5258 8742.00000   48  103 8788.00000 8450.00000  3.85%  23.1  285s
 18216 11490 8596.00000   47  149 8788.00000 8450.00000  3.85%  24.0  290s
H22898 13515                    8776.0000000 8450.00000  3.71%  23.4  292s
H22919 13534                    8773.0000000 8450.00000  3.68%  23.4  293s
H23164 13459                    8771.0000000 8450.00000  3.66%  23.5  293s
 25381 15281 8684.00000  125  130 8771.00000 8450.00000  3.66%  23.8  295s
 29768 17552 8576.41379   33  127 8771.00000 8450.00000  3.66%  23.4  321s
 29790 17567 8556.00000   63  299 8771.00000 8450.00000  3.66%  23.4  325s
 29798 17572 8700.00000   52  251 8771.00000 8450.00000  3.66%  23.4  330s
 29804 17576 8580.00000   42  193 8771.00000 8450.00000  3.66%  23.4  335s
 29809 17579 8612.00000  134  174 8771.00000 8450.00000  3.66%  23.4  342s
 29816 17584 8664.00000   73  187 8771.00000 8450.00000  3.66%  23.4  345s
 29820 17587 8696.00000   83  155 8771.00000 8450.00000  3.66%  23.4  979s

Cutting planes:
  Learned: 16
  Gomory: 24
  Cover: 10
  Implied bound: 6
  Projected implied bound: 3
  Clique: 1
  MIR: 18
  StrongCG: 2
  Flow cover: 49
  GUB cover: 2
  Zero half: 5
  RLT: 21
  Relax-and-lift: 1

Explored 29820 nodes (766963 simplex iterations) in 979.55 seconds (39.69 work units)
Thread count was 8 (of 8 available processors)

Solution count 10: 8771 8773 8776 ... 8815

Solve interrupted
Best objective 8.771000000000e+03, best bound 8.450000000000e+03, gap 3.6598%

User-callback calls 75176, time in user-callback 0.32 sec

Statistics for modelBWKS_medium_september:
  Linear constraint matrix    : 10537 Constrs, 4887 Vars, 50426 NZs
  Variable types              : 1358 Continuous,
3529 Integer (1331 Binary)
  Matrix coefficient range    : [ 1, 396 ]
  Objective coefficient range : [ 1, 396 ]
  Variable bound range        : [ 1, 199 ]
  RHS coefficient range       : [ 1, 9389.16 ]
